language ESSENCE' 1.0

letting jobs = 102
letting horizon = 815
letting resourcesRenew = 2
letting resourcesNonrenew = 2
letting resourceLimits = [45, 46, 508, 561]
letting successors = [[2, 3, 4, 5, 6, 7, 8, 9, 10, 11, 12, 13, 14, 15, 16, 17, 19, 20, 25, 26, 27, 28], [52, 51, 49, 46, 45, 43, 42, 41, 40, 39, 38, 37, 36, 33, 32, 31, 30, 23], [54, 46, 45, 43, 42, 41, 40, 36, 35, 34, 30, 23, 22], [52, 47, 42, 38, 37, 36, 34, 31, 30, 18], [74, 54, 52, 49, 47, 46, 44, 43, 41, 38, 37, 35, 34, 32, 31], [65, 49, 46, 45, 42, 41, 35, 34, 33, 23, 22], [53, 52, 51, 47, 46, 37, 36, 18], [74, 52, 50, 46, 45, 42, 41, 37, 35, 34, 31, 30], [51, 49, 47, 46, 45, 43, 36, 35, 33, 30, 22], [50, 45, 44, 42, 40, 38, 33, 21], [53, 47, 43, 41, 39, 36, 34, 30, 22], [58, 54, 53, 51, 49, 46, 35, 32, 22], [74, 53, 52, 49, 47, 45, 43, 41, 38, 37, 34, 30], [58, 54, 53, 43, 41, 40, 36, 22], [65, 58, 47, 46, 42, 36, 22], [53, 52, 50, 47, 45, 37, 24], [74, 63, 62, 61, 57, 53, 52, 51, 48, 47, 44, 43, 42, 39], [74, 64, 62, 55, 54, 50, 49, 45, 44, 41, 40, 33], [64, 63, 62, 51, 49, 47, 43, 41, 29], [74, 69, 62, 61, 54, 52, 50, 49, 44, 38, 37, 33], [74, 70, 66, 65, 62, 61, 52, 51, 49, 43, 37, 36], [85, 74, 70, 69, 68, 62, 61, 57, 55, 52, 50, 48, 44, 38], [74, 68, 63, 62, 61, 58, 57, 55, 53, 50, 48, 47, 44], [74, 70, 69, 65, 59, 51, 30], [85, 73, 70, 69, 68, 66, 63, 62, 58, 57, 56, 55, 53, 51], [85, 70, 68, 62, 54, 52, 44, 37], [101, 85, 74, 73, 68, 66, 65, 56, 55, 53, 51, 47], [85, 74, 69, 65, 63, 61, 60, 57, 52, 50, 44], [58, 57, 55, 52, 44, 40], [85, 68, 63, 61, 57, 55, 48, 44], [100, 98, 85, 83, 81, 78, 73, 71, 69, 66, 65, 63, 62, 57, 53], [85, 84, 83, 73, 72, 68, 65, 61, 60, 59, 56, 50], [83, 71, 68, 66, 63, 59, 58, 57, 56, 48], [99, 83, 70, 68, 67, 64, 60, 58, 57, 51], [99, 85, 84, 72, 71, 64, 61, 59, 57, 48], [100, 99, 98, 97, 85, 84, 83, 82, 81, 72, 71, 69, 68, 67, 60, 57], [81, 73, 63, 59, 58, 55], [101, 100, 99, 98, 95, 83, 82, 81, 78, 73, 64, 63, 59], [101, 97, 85, 73, 72, 67, 56, 50], [100, 99, 98, 96, 83, 80, 78, 77, 72, 69, 68, 65, 61, 60], [99, 97, 96, 84, 83, 78, 77, 72, 71, 69, 68, 60, 56], [100, 99, 98, 93, 84, 82, 81, 80, 79, 78, 73, 72, 71, 68, 67], [100, 99, 96, 81, 68, 59, 55], [101, 99, 84, 78, 77, 73, 72, 71, 66, 56], [101, 100, 99, 93, 78, 73, 72, 71, 67, 56], [99, 98, 97, 96, 93, 78, 71, 67, 63, 56], [99, 98, 84, 83, 80, 78, 75, 70, 69, 67, 60], [100, 98, 97, 95, 93, 82, 80, 79, 78, 76, 75, 73, 67], [99, 97, 85, 82, 76, 73, 68, 57], [100, 99, 98, 96, 95, 94, 93, 91, 81, 79, 78, 77, 75, 71], [98, 97, 96, 95, 93, 91, 82, 81, 79, 78, 77, 75, 72, 71], [100, 95, 83, 81, 79, 76, 75, 59], [99, 84, 79, 75, 72, 64, 59], [101, 98, 97, 95, 94, 93, 90, 82, 80, 77, 73, 71], [98, 94, 83, 77, 75, 71, 60], [95, 94, 92, 91, 89, 82, 81, 80, 79, 75], [96, 95, 94, 93, 91, 89, 88, 80, 79, 75], [100, 96, 93, 92, 89, 88, 84, 82, 75, 72], [97, 93, 92, 89, 80, 67], [95, 93, 91, 90, 88, 86, 79, 76], [101, 97, 91, 86, 81, 75], [101, 97, 94, 91, 89, 88, 80], [92, 88, 79, 75, 72], [97, 88, 87, 86, 76], [94, 91, 87, 86, 76], [93, 91, 89, 88, 82], [94, 91, 87, 77], [95, 89, 86, 75], [95, 93, 90, 89, 87], [96, 90, 86, 79], [86, 76], [90, 87, 86], [96, 89, 86], [91, 88, 87], [90, 87], [92, 89], [88, 86], [88, 87], [87], [86], [88], [86], [90], [87], [89], [102], [102], [102], [102], [102], [102], [102], [102], [102], [102], [102], [102], [102], [102], [102], [102], []]
letting durations = [[0], [3, 4, 6], [8, 9, 10], [1, 6, 7], [3, 3, 10], [1, 2, 4], [1, 4, 10], [3, 5, 8], [1, 4, 10], [1, 2, 3], [6, 8, 9], [4, 5, 6], [5, 6, 9], [6, 7, 10], [7, 8, 9], [4, 5, 7], [3, 5, 10], [2, 2, 8], [3, 5, 10], [4, 7, 8], [4, 7, 10], [1, 8, 9], [2, 5, 6], [1, 2, 7], [6, 7, 9], [1, 8, 9], [1, 5, 7], [3, 5, 6], [2, 2, 3], [1, 6, 8], [1, 5, 7], [4, 5, 9], [2, 6, 8], [3, 7, 9], [1, 3, 8], [2, 5, 8], [1, 6, 9], [3, 4, 9], [1, 8, 8], [1, 3, 10], [6, 7, 9], [3, 4, 10], [4, 6, 8], [2, 3, 7], [2, 8, 9], [3, 4, 9], [5, 6, 10], [7, 9, 9], [6, 8, 10], [4, 5, 8], [1, 10, 10], [2, 7, 9], [7, 9, 10], [3, 4, 4], [3, 7, 9], [1, 8, 9], [3, 6, 9], [1, 7, 9], [1, 3, 8], [2, 6, 9], [1, 1, 7], [3, 4, 5], [6, 7, 9], [6, 6, 10], [1, 2, 3], [1, 2, 6], [1, 2, 7], [5, 7, 10], [3, 8, 8], [4, 5, 7], [1, 2, 5], [7, 8, 10], [2, 9, 10], [6, 7, 9], [3, 6, 7], [4, 7, 7], [7, 8, 9], [1, 2, 8], [5, 9, 9], [1, 9, 10], [1, 2, 6], [1, 5, 6], [2, 5, 8], [3, 3, 7], [1, 1, 5], [2, 9, 10], [5, 6, 10], [1, 2, 5], [1, 9, 10], [2, 4, 6], [6, 7, 8], [4, 7, 8], [3, 4, 7], [2, 2, 10], [1, 2, 9], [8, 9, 10], [6, 7, 9], [1, 7, 10], [1, 8, 9], [2, 6, 9], [3, 4, 9], [0]]
letting resourceUsage = [[[0, 0, 0, 0]], [[3, 0, 8, 9], [3, 0, 4, 6], [0, 1, 4, 5]], [[2, 0, 3, 10], [0, 3, 3, 8], [0, 1, 2, 6]], [[1, 0, 5, 9], [0, 5, 5, 9], [0, 5, 3, 9]], [[0, 4, 4, 8], [3, 0, 4, 7], [2, 0, 4, 7]], [[0, 4, 8, 9], [0, 3, 4, 6], [1, 0, 2, 4]], [[4, 0, 8, 1], [0, 3, 7, 1], [2, 0, 6, 1]], [[0, 4, 6, 6], [4, 0, 3, 4], [3, 0, 2, 4]], [[4, 0, 4, 9], [0, 2, 2, 8], [2, 0, 2, 6]], [[5, 0, 4, 2], [5, 0, 2, 1], [0, 1, 2, 1]], [[0, 4, 5, 7], [0, 3, 3, 6], [3, 0, 2, 6]], [[4, 0, 7, 7], [4, 0, 5, 5], [3, 0, 2, 4]], [[5, 0, 10, 2], [3, 0, 7, 1], [0, 4, 5, 1]], [[0, 3, 7, 10], [1, 0, 7, 9], [0, 2, 6, 9]], [[2, 0, 5, 10], [1, 0, 5, 8], [1, 0, 5, 7]], [[0, 4, 1, 10], [3, 0, 1, 10], [1, 0, 1, 10]], [[0, 1, 2, 8], [0, 1, 1, 7], [1, 0, 1, 7]], [[0, 3, 5, 1], [3, 0, 3, 1], [3, 0, 1, 1]], [[4, 0, 6, 1], [4, 0, 4, 1], [0, 3, 1, 1]], [[0, 3, 8, 10], [2, 0, 6, 10], [2, 0, 3, 10]], [[4, 0, 5, 9], [0, 2, 5, 8], [0, 2, 2, 8]], [[0, 3, 7, 7], [0, 3, 5, 6], [1, 0, 4, 6]], [[0, 5, 10, 6], [0, 5, 10, 4], [0, 5, 10, 2]], [[0, 3, 7, 3], [0, 3, 4, 3], [1, 0, 2, 1]], [[0, 5, 5, 8], [0, 3, 5, 5], [0, 1, 5, 2]], [[0, 3, 5, 9], [0, 3, 4, 4], [0, 3, 4, 3]], [[0, 3, 6, 2], [0, 3, 6, 1], [4, 0, 6, 1]], [[3, 0, 5, 8], [2, 0, 4, 8], [2, 0, 3, 6]], [[5, 0, 10, 2], [0, 3, 5, 2], [4, 0, 4, 2]], [[0, 4, 7, 5], [1, 0, 5, 4], [1, 0, 4, 2]], [[0, 4, 8, 9], [0, 3, 8, 5], [0, 3, 8, 4]], [[0, 4, 8, 8], [0, 4, 6, 8], [1, 0, 6, 5]], [[0, 4, 5, 4], [0, 3, 4, 4], [2, 0, 2, 4]], [[0, 3, 9, 7], [0, 3, 3, 7], [0, 1, 3, 3]], [[0, 3, 5, 4], [2, 0, 5, 4], [2, 0, 3, 4]], [[3, 0, 8, 9], [0, 3, 8, 5], [0, 3, 8, 1]], [[3, 0, 10, 10], [3, 0, 9, 4], [0, 2, 9, 4]], [[4, 0, 9, 9], [2, 0, 8, 6], [0, 3, 6, 6]], [[4, 0, 6, 8], [0, 3, 5, 7], [2, 0, 5, 6]], [[0, 4, 8, 10], [3, 0, 8, 9], [0, 4, 8, 8]], [[0, 3, 6, 2], [3, 0, 6, 2], [0, 1, 6, 1]], [[3, 0, 8, 10], [0, 2, 6, 9], [0, 2, 4, 7]], [[4, 0, 9, 4], [4, 0, 7, 3], [4, 0, 6, 2]], [[2, 0, 7, 9], [1, 0, 7, 8], [0, 2, 5, 8]], [[5, 0, 9, 9], [2, 0, 9, 6], [1, 0, 9, 5]], [[4, 0, 10, 5], [0, 2, 9, 4], [0, 2, 8, 3]], [[4, 0, 7, 8], [2, 0, 7, 7], [0, 3, 6, 6]], [[3, 0, 10, 7], [0, 1, 6, 7], [1, 0, 4, 4]], [[5, 0, 4, 8], [4, 0, 2, 5], [0, 5, 1, 4]], [[0, 2, 3, 6], [2, 0, 2, 5], [0, 2, 2, 3]], [[5, 0, 6, 3], [0, 3, 4, 2], [3, 0, 1, 2]], [[0, 5, 10, 7], [0, 3, 6, 7], [0, 3, 5, 2]], [[4, 0, 9, 10], [2, 0, 6, 8], [2, 0, 4, 7]], [[0, 2, 3, 7], [0, 1, 2, 5], [1, 0, 2, 4]], [[2, 0, 5, 5], [1, 0, 4, 5], [1, 0, 3, 3]], [[0, 3, 6, 5], [3, 0, 6, 4], [2, 0, 5, 4]], [[3, 0, 6, 7], [0, 3, 4, 6], [3, 0, 2, 6]], [[0, 4, 8, 7], [2, 0, 7, 5], [0, 1, 6, 5]], [[4, 0, 6, 9], [3, 0, 5, 6], [0, 1, 1, 6]], [[0, 5, 7, 9], [3, 0, 7, 8], [0, 3, 4, 8]], [[2, 0, 4, 1], [0, 3, 3, 1], [0, 2, 3, 1]], [[0, 1, 9, 3], [0, 1, 7, 2], [2, 0, 5, 2]], [[0, 3, 2, 9], [1, 0, 2, 6], [1, 0, 2, 4]], [[0, 1, 6, 8], [3, 0, 5, 6], [2, 0, 4, 1]], [[0, 4, 8, 7], [0, 4, 6, 7], [0, 4, 5, 5]], [[4, 0, 8, 7], [0, 4, 6, 6], [0, 3, 3, 6]], [[4, 0, 6, 5], [4, 0, 4, 3], [0, 3, 4, 3]], [[0, 3, 6, 9], [2, 0, 5, 8], [2, 0, 3, 7]], [[0, 4, 4, 10], [0, 3, 2, 9], [1, 0, 2, 8]], [[5, 0, 2, 8], [0, 3, 1, 6], [2, 0, 1, 4]], [[5, 0, 5, 4], [0, 1, 4, 4], [5, 0, 4, 4]], [[0, 4, 7, 8], [2, 0, 4, 8], [0, 1, 3, 8]], [[0, 4, 2, 8], [2, 0, 2, 7], [0, 3, 2, 6]], [[4, 0, 10, 10], [0, 1, 9, 10], [0, 1, 9, 9]], [[0, 5, 7, 8], [0, 4, 5, 5], [1, 0, 5, 4]], [[5, 0, 7, 9], [3, 0, 5, 6], [0, 1, 3, 5]], [[0, 1, 5, 2], [1, 0, 3, 2], [1, 0, 2, 2]], [[5, 0, 5, 9], [0, 4, 5, 8], [3, 0, 3, 7]], [[2, 0, 7, 8], [0, 4, 6, 7], [1, 0, 6, 5]], [[1, 0, 8, 3], [1, 0, 5, 3], [1, 0, 4, 3]], [[5, 0, 9, 8], [0, 2, 7, 8], [0, 2, 4, 5]], [[0, 2, 3, 6], [0, 1, 2, 6], [1, 0, 2, 3]], [[3, 0, 8, 7], [3, 0, 4, 6], [3, 0, 4, 5]], [[1, 0, 4, 4], [0, 3, 4, 2], [1, 0, 2, 1]], [[0, 4, 3, 4], [4, 0, 3, 2], [4, 0, 3, 1]], [[5, 0, 4, 7], [4, 0, 4, 7], [4, 0, 3, 6]], [[0, 5, 4, 9], [0, 4, 4, 7], [3, 0, 4, 1]], [[4, 0, 3, 6], [0, 4, 2, 4], [0, 3, 1, 3]], [[5, 0, 7, 5], [5, 0, 5, 5], [0, 2, 3, 5]], [[0, 4, 3, 4], [3, 0, 3, 3], [3, 0, 2, 3]], [[2, 0, 9, 9], [2, 0, 8, 4], [1, 0, 8, 2]], [[3, 0, 7, 9], [0, 4, 6, 4], [0, 4, 5, 4]], [[0, 5, 8, 7], [2, 0, 6, 6], [2, 0, 3, 5]], [[5, 0, 2, 7], [0, 2, 2, 7], [4, 0, 2, 7]], [[1, 0, 7, 8], [1, 0, 5, 8], [0, 2, 5, 8]], [[0, 4, 7, 7], [4, 0, 4, 6], [0, 3, 3, 6]], [[4, 0, 6, 5], [0, 1, 3, 5], [0, 1, 2, 5]], [[0, 3, 8, 5], [0, 1, 5, 5], [0, 1, 4, 5]], [[0, 1, 5, 10], [0, 1, 5, 6], [0, 1, 5, 1]], [[0, 5, 9, 6], [4, 0, 6, 5], [3, 0, 6, 4]], [[0, 1, 6, 5], [4, 0, 5, 4], [0, 1, 4, 3]], [[0, 0, 0, 0]]]
